237,476
441,406
732,731
742,791
705,423
744,343
1095,471
1184,485
888,438
776,593
782,93
1081,202
1191,406
698,430
267,341
237,336
296,345
718,292
857,164
760,-97
611,-38
620,21
558,237
531,406
364,-30
225,258
311,286
652,402
672,434
512,529
390,617
681,676
